S = 4;
start = [|0,0,15,0,0,16,0,0,0,0,0,0,0,0,14,0|
2,7,0,0,0,0,0,0,0,0,0,0,0,0,0,0|
1,0,0,0,0,0,0,0,0,0,0,0,0,0,0,0|
0,0,0,0,0,4,0,0,0,0,0,0,1,2,15,0|
0,0,0,6,0,0,11,1,0,0,0,0,0,0,0,0|
5,0,0,0,2,0,0,0,0,8,0,0,0,0,0,0|
13,0,16,0,0,8,0,3,9,0,0,0,0,0,0,15|
9,8,0,4,0,0,0,12,0,10,0,15,0,0,1,0|
8,14,0,0,12,0,0,13,0,0,16,0,0,0,0,9|
0,0,12,0,7,0,0,14,5,0,0,0,0,0,0,10|
0,0,9,0,5,0,0,0,0,0,0,0,0,0,0,0|
0,0,0,0,0,0,2,0,12,0,0,4,0,0,0,1|
0,0,0,12,9,0,6,0,0,0,2,0,13,0,5,8|
0,0,0,8,11,12,0,4,0,0,0,9,0,0,7,2|
0,0,5,0,0,0,0,10,0,0,0,11,4,0,0,0|
7,0,0,0,0,5,0,0,0,0,0,0,0,0,10,0|];